71
120
84	3
83	7
82	5
81	3
80	8
79	3
78	4
77	3
76	3
75	7
74	10
73	8
72	6
71	4
70	1
69	5
68	8
67	5
66	3
65	5
64	5
63	6
62	5
61	13
60	2
59	2
58	7
57	4
56	5
55	5
54	3
53	7
52	3
51	7
50	7
49	8
47	4
46	5
45	2
44	5
43	6
42	7
41	7
40	9
39	4
38	6
37	6
36	3
35	5
34	9
33	7
32	7
31	4
30	3
29	7
28	10
27	5
26	5
25	7
24	9
23	8
22	6
21	4
20	6
19	5
17	6
16	10
15	8
14	5
13	4
12	6
